6406 4391
1533 251
2111 5426
4529 5238
3427 5283
2267 4679
8637 7845
4500 8988
4562 5131
6134 1384
6934 6691
9730 6641
7769 185
5618 9311
9664 893
4780 3599
3476 9400
4068 6639
3323 1570
3169 5591
4332 5269
4892 3498
725 2715
2790 5863
7058 3675
5463 9862
4449 4780
2971 2765
8374 8452
6866 4867
2494 2633
6816 7140
5966 4401
3608 7996
827 1481
359 7356
1531 3400
1811 2405
2887 4257
6515 7850
1469 3794
2216 2292
888 2293
5001 243
5705 9488
1455 8566
6414 4856
8808 2672
6821 2464
7795 8088
